NAME : mEgtspf.pid29472.gtsp.159061381.tour
COMMENT : Length = 159061381
COMMENT : Found by LKH [Keld Helsgaun] Fri Mar  7 02:36:18 2025
TYPE : TOUR
DIMENSION : 90
TOUR_SECTION
1
36
37
38
35
4
5
20
21
22
19
3
83
84
85
86
2
46
43
44
45
8
9
65
66
63
64
71
72
73
74
82
79
80
81
34
31
32
33
10
69
70
67
68
23
24
25
26
28
29
30
27
88
89
90
87
15
16
17
18
49
50
47
48
7
6
55
56
57
58
75
76
77
78
52
53
54
51
60
61
62
59
40
41
42
39
11
12
13
14
-1
EOF
